num_features = 28;
num_usage_limits = 4;
num_plans = 3;
num_addons = 0;

features = ["socialAccounts","instagram","facebook","twitter","linkedin","pinterest","pinterestBoards","schedulePosts","tailoredPostComposer","calendarView","customVideoThumpnails","instagramFirstComment","instagramHashtagManager","instagramStories","instagramShopGrid","draftPosts","postsReport","inviteAdditionalUsers","assignAccessAndPermissions","approvalWorkflow","browserExtension","mobileApps","thirdPartyIntegrations","twoFactorAuthentication","selfServiceKnowledgeBase","socialMediaSupport","emailSupport","bufferCommunity"];
usage_limits = ["socialAccountsLimit","postsPerScheduledQueuePerSocialAccountLimit","usersLimit","postsReportTemporalThreshold"];
plans = ["PRO","PREMIUM","BUSINESS"];
addons = [];

plans_prices = [15,65,99];
addons_prices = [];

linked_features = array2d(USAGE_LIMITS, FEATURES, [
    % socialAccountsLimit
    1,0,0,0,0,0,0,0,0,0,0,0,0,0,0,0,0,0,0,0,0,0,0,0,0,0,0,0,
    % postsPerScheduledQueuePerSocialAccountLimit
    0,0,0,0,0,0,0,1,0,0,0,0,0,0,0,0,0,0,0,0,0,0,0,0,0,0,0,0,
    % usersLimit
    0,0,0,0,0,0,0,0,0,0,0,0,0,0,0,0,0,0,0,0,0,0,0,0,0,0,0,0,
    % postsReportTemporalThreshold
    0,0,0,0,0,0,0,0,0,0,0,0,0,0,0,0,1,0,0,0,0,0,0,0,0,0,0,0
]);

plans_features = array2d(PLANS, FEATURES, [
    % PRO
    1,1,1,1,1,1,0,1,1,1,1,1,0,0,0,0,0,0,0,0,1,1,1,1,1,1,1,1,
    % PREMIUM
    1,1,1,1,1,1,0,1,1,1,1,1,1,1,1,1,0,1,1,1,1,1,1,1,1,1,1,1,
    % BUSINESS
    1,1,1,1,1,1,0,1,1,1,1,1,1,1,1,1,0,1,1,1,1,1,1,1,1,1,1,1
]);
plans_usage_limits = array2d(PLANS, USAGE_LIMITS, [
    % PRO
    8,100,1,1000000,
    % PREMIUM
    8,2000,2,10000000,
    % BUSINESS
    25,2000,6,10000000
]);

addons_features = array2d(ADDONS, FEATURES, [
]);
addons_usage_limits = array2d(ADDONS, USAGE_LIMITS, [
]);
addons_usage_limits_extensions = array2d(ADDONS, USAGE_LIMITS, [
]);
addons_available_for = array2d(ADDONS, PLANS, [
]);
addons_depends_on = array2d(ADDONS, ADDONS, [
]);
